language Essence 1.3

letting blksize_delta be
        function(1 --> 8, 2 --> 8, 3 --> 9, 4 --> 8, 5 --> 8, 6 --> 9, 7 --> 8, 8 --> 8, 9 --> 8, 10 --> 8, 11 --> 8,
                 12 --> 8, 13 --> 8, 14 --> 8, 15 --> 8, 16 --> 8, 17 --> 8, 18 --> 8, 19 --> 8, 20 --> 8, 21 --> 8,
                 22 --> 8, 23 --> 8, 24 --> 8, 25 --> 8, 26 --> 8, 27 --> 8, 28 --> 8)
letting maxcars be
        function(1 --> 8, 2 --> 8, 3 --> 8, 4 --> 10, 5 --> 8, 6 --> 8, 7 --> 8, 8 --> 8, 9 --> 8, 10 --> 8, 11 --> 8,
                 12 --> 8, 13 --> 9, 14 --> 8, 15 --> 8, 16 --> 8, 17 --> 8, 18 --> 8, 19 --> 8, 20 --> 8, 21 --> 8,
                 22 --> 8, 23 --> 8, 24 --> 8, 25 --> 9, 26 --> 8, 27 --> 8, 28 --> 8)
letting n_cars be 208
letting n_classes be 22
letting n_options be 28
letting quantity be
        function(1 --> 9, 2 --> 9, 3 --> 9, 4 --> 9, 5 --> 16, 6 --> 9, 7 --> 12, 8 --> 9, 9 --> 9, 10 --> 9, 11 --> 9,
                 12 --> 9, 13 --> 9, 14 --> 9, 15 --> 9, 16 --> 9, 17 --> 9, 18 --> 9, 19 --> 9, 20 --> 9, 21 --> 9,
                 22 --> 9)
letting usage be
        relation((1, 1), (1, 24), (2, 28), (3, 11), (3, 17), (3, 22), (3, 24), (4, 15), (4, 23), (5, 4), (5, 13),
                 (5, 27), (6, 1), (6, 10), (7, 2), (7, 7), (7, 26), (8, 7), (8, 15), (8, 28), (9, 10), (9, 15),
                 (10, 21), (11, 11), (11, 12), (12, 4), (12, 5), (12, 11), (12, 17), (12, 25), (13, 8), (13, 15),
                 (14, 1), (14, 8), (14, 19), (14, 20), (14, 24), (15, 16), (16, 6), (16, 18), (16, 19), (17, 3),
                 (17, 5), (17, 7), (17, 14), (17, 19), (17, 27), (18, 16), (18, 20), (18, 21), (19, 8), (19, 23),
                 (20, 1), (20, 9), (20, 17), (20, 23), (21, 6), (21, 12), (21, 20), (22, 2), (22, 4), (22, 5), (22, 23),
                 (22, 28))
$ Visualisation for usage
$  1  1
$  1 24
$  2 28
$  3 11
$  3 17
$  3 22
$  3 24
$  4 15
$  4 23
$  5  4
$  5 13
$  5 27
$  6  1
$  6 10
$  7  2
$  7  7
$  7 26
$  8  7
$  8 15
$  8 28
$  9 10
$  9 15
$ 10 21
$ 11 11
$ 11 12
$ 12  4
$ 12  5
$ 12 11
$ 12 17
$ 12 25
$ 13  8
$ 13 15
$ 14  1
$ 14  8
$ 14 19
$ 14 20
$ 14 24
$ 15 16
$ 16  6
$ 16 18
$ 16 19
$ 17  3
$ 17  5
$ 17  7
$ 17 14
$ 17 19
$ 17 27
$ 18 16
$ 18 20
$ 18 21
$ 19  8
$ 19 23
$ 20  1
$ 20  9
$ 20 17
$ 20 23
$ 21  6
$ 21 12
$ 21 20
$ 22  2
$ 22  4
$ 22  5
$ 22 23
$ 22 28

